Welcome to the CBC MILP Solver 
Version: 2.10.12 
Build Date: Aug 20 2024 

command line - /opt/homebrew/bin/cbc computational_data/lp/K6_12.lp seconds 10.0 solve solu computational_data/solutions/K6_12.sol (default strategy 1)
seconds was changed from 1e+100 to 10
Continuous objective value is 3.17647 - 0.00 seconds
Cgl0004I processed model has 200 rows, 36 columns (36 integer (36 of which binary)) and 720 elements
Cutoff increment increased from 1e-05 to 0.9999
Cbc0038I Initial state - 18 integers unsatisfied sum - 3.17647
Cbc0038I Pass   1: suminf.    3.17647 (18) obj. 3.17647 iterations 17
Cbc0038I Pass   2: suminf.    0.00000 (0) obj. 12 iterations 35
Cbc0038I Solution found of 12
Cbc0038I Before mini branch and bound, 6 integers at bound fixed and 0 continuous
Cbc0038I Full problem 200 rows 36 columns, reduced to 150 rows 30 columns - 3 fixed gives 0, 0 - ok now
Cbc0038I Full problem 200 rows 36 columns, reduced to 0 rows 0 columns
Cbc0038I Mini branch and bound did not improve solution (0.00 seconds)
Cbc0038I Round again with cutoff of 10.2177
Cbc0038I Pass   3: suminf.    3.17647 (18) obj. 3.17647 iterations 0
Cbc0038I Pass   4: suminf.    3.30992 (18) obj. 10.2177 iterations 19
Cbc0038I Pass   5: suminf.    2.49517 (14) obj. 10.2177 iterations 17
Cbc0038I Pass   6: suminf.    2.16667 (26) obj. 3.83333 iterations 33
Cbc0038I Pass   7: suminf.    2.49517 (14) obj. 10.2177 iterations 41
Cbc0038I Pass   8: suminf.    2.49517 (14) obj. 10.2177 iterations 0
Cbc0038I Pass   9: suminf.    3.56453 (16) obj. 10.2177 iterations 14
Cbc0038I Pass  10: suminf.    2.49517 (14) obj. 10.2177 iterations 14
Cbc0038I Pass  11: suminf.    2.33333 (20) obj. 5.16667 iterations 16
Cbc0038I Pass  12: suminf.    2.32558 (19) obj. 5.16279 iterations 8
Cbc0038I Pass  13: suminf.    2.83051 (23) obj. 7.69492 iterations 57
Cbc0038I Pass  14: suminf.    2.66667 (16) obj. 9.33333 iterations 41
Cbc0038I Pass  15: suminf.    0.00000 (0) obj. 6 iterations 29
Cbc0038I Solution found of 6
Cbc0038I Before mini branch and bound, 0 integers at bound fixed and 0 continuous
Cbc0038I Mini branch and bound did not improve solution (0.03 seconds)
Cbc0038I Round again with cutoff of 4.63537
Cbc0038I Pass  16: suminf.    3.17647 (18) obj. 3.17647 iterations 0
Cbc0038I Pass  17: suminf.    3.36463 (10) obj. 4.63537 iterations 20
Cbc0038I Pass  18: suminf.    3.36463 (10) obj. 4.63537 iterations 7
Cbc0038I Pass  19: suminf.    2.72925 (8) obj. 4.63537 iterations 17
Cbc0038I Pass  20: suminf.    2.33333 (14) obj. 3.66667 iterations 17
Cbc0038I Pass  21: suminf.    2.72925 (8) obj. 4.63537 iterations 21
Cbc0038I Pass  22: suminf.    2.72925 (8) obj. 4.63537 iterations 0
Cbc0038I Pass  23: suminf.    3.18413 (9) obj. 4.63537 iterations 11
Cbc0038I Pass  24: suminf.    2.72925 (8) obj. 4.63537 iterations 11
Cbc0038I Pass  25: suminf.    2.72925 (8) obj. 4.63537 iterations 3
Cbc0038I Pass  26: suminf.    3.13537 (12) obj. 4.63537 iterations 32
Cbc0038I Pass  27: suminf.    2.16667 (19) obj. 4.33333 iterations 22
Cbc0038I Pass  28: suminf.    3.04694 (19) obj. 4.63537 iterations 33
Cbc0038I Pass  29: suminf.    3.04694 (9) obj. 4.63537 iterations 18
Cbc0038I Pass  30: suminf.    2.57143 (10) obj. 3.42857 iterations 29
Cbc0038I Pass  31: suminf.    2.33333 (14) obj. 3.66667 iterations 14
Cbc0038I Pass  32: suminf.    2.72925 (8) obj. 4.63537 iterations 15
Cbc0038I Pass  33: suminf.    2.72925 (8) obj. 4.63537 iterations 4
Cbc0038I Pass  34: suminf.    4.63537 (10) obj. 4.63537 iterations 18
Cbc0038I Pass  35: suminf.    3.17647 (18) obj. 3.17647 iterations 42
Cbc0038I Pass  36: suminf.    3.37714 (11) obj. 4.63537 iterations 26
Cbc0038I Pass  37: suminf.    3.36463 (12) obj. 4.63537 iterations 12
Cbc0038I Pass  38: suminf.    2.72925 (8) obj. 4.63537 iterations 22
Cbc0038I Pass  39: suminf.    2.72925 (8) obj. 4.63537 iterations 0
Cbc0038I Pass  40: suminf.    2.33333 (14) obj. 3.66667 iterations 19
Cbc0038I Pass  41: suminf.    2.72925 (8) obj. 4.63537 iterations 21
Cbc0038I Pass  42: suminf.    2.72925 (8) obj. 4.63537 iterations 0
Cbc0038I Pass  43: suminf.    4.63537 (10) obj. 4.63537 iterations 20
Cbc0038I Pass  44: suminf.    3.17647 (18) obj. 3.17647 iterations 36
Cbc0038I Pass  45: suminf.    3.37714 (11) obj. 4.63537 iterations 20
Cbc0038I No solution found this major pass
Cbc0038I Before mini branch and bound, 1 integers at bound fixed and 0 continuous
Cbc0038I Full problem 200 rows 36 columns, reduced to 193 rows 35 columns - 4 fixed gives 0, 0 - ok now
Cbc0038I Mini branch and bound did not improve solution (0.07 seconds)
Cbc0038I After 0.07 seconds - Feasibility pump exiting with objective of 6 - took 0.07 seconds
Cbc0012I Integer solution of 6 found by feasibility pump after 0 iterations and 0 nodes (0.07 seconds)
Cbc0038I Full problem 200 rows 36 columns, reduced to 102 rows 22 columns
Cbc0031I 5 added rows had average density of 30
Cbc0013I At root node, 5 cuts changed objective from 3.1764706 to 4 in 100 passes
Cbc0014I Cut generator 0 (Probing) - 0 row cuts average 0.0 elements, 0 column cuts (0 active)  in 0.015 seconds - new frequency is -100
Cbc0014I Cut generator 1 (Gomory) - 603 row cuts average 35.7 elements, 0 column cuts (0 active)  in 0.009 seconds - new frequency is 1
Cbc0014I Cut generator 2 (Knapsack) - 0 row cuts average 0.0 elements, 0 column cuts (0 active)  in 0.008 seconds - new frequency is -100
Cbc0014I Cut generator 3 (Clique) - 0 row cuts average 0.0 elements, 0 column cuts (0 active)  in 0.002 seconds - new frequency is -100
Cbc0014I Cut generator 4 (MixedIntegerRounding2) - 41 row cuts average 35.7 elements, 0 column cuts (0 active)  in 0.009 seconds - new frequency is -100
Cbc0014I Cut generator 5 (FlowCover) - 0 row cuts average 0.0 elements, 0 column cuts (0 active)  in 0.001 seconds - new frequency is -100
Cbc0010I After 0 nodes, 1 on tree, 6 best solution, best possible 4 (0.16 seconds)
Cbc0001I Search completed - best objective 6, took 1667 iterations and 6 nodes (0.17 seconds)
Cbc0032I Strong branching done 60 times (893 iterations), fathomed 1 nodes and fixed 16 variables
Cbc0035I Maximum depth 2, 0 variables fixed on reduced cost
Cuts at root node changed objective from 3.17647 to 4
Probing was tried 100 times and created 0 cuts of which 0 were active after adding rounds of cuts (0.015 seconds)
Gomory was tried 110 times and created 637 cuts of which 0 were active after adding rounds of cuts (0.010 seconds)
Knapsack was tried 100 times and created 0 cuts of which 0 were active after adding rounds of cuts (0.008 seconds)
Clique was tried 100 times and created 0 cuts of which 0 were active after adding rounds of cuts (0.002 seconds)
MixedIntegerRounding2 was tried 100 times and created 41 cuts of which 0 were active after adding rounds of cuts (0.009 seconds)
FlowCover was tried 100 times and created 0 cuts of which 0 were active after adding rounds of cuts (0.001 seconds)
TwoMirCuts was tried 1 times and created 0 cuts of which 0 were active after adding rounds of cuts (0.000 seconds)
ZeroHalf was tried 1 times and created 0 cuts of which 0 were active after adding rounds of cuts (0.000 seconds)

Result - Optimal solution found

Objective value:                6.00000000
Enumerated nodes:               6
Total iterations:               1667
Time (CPU seconds):             0.17
Time (Wallclock seconds):       0.18

Total time (CPU seconds):       0.17   (Wallclock seconds):       0.18

